(set-logic HORN)
(declare-fun state (Int Int (Array Int Int) Int Int (Array Int Int) Int Bool Bool Bool Int Int Int) Bool)
(assert (forall ((|E_5| Int) (|.y.11| Int) (|F_5| (Array Int Int)) (|I_5| Int) (|A_6| Int) (|.y.12| (Array Int Int)) (|.y.13| Int) (|.loc.14| Bool) (|.loc.15| Bool) (|.loc.16| Bool) (|I_2| Int) (|G_5| Int) (|L_4| Int) (|.loc.26| Bool) (|.loc.24| Bool) (|.loc.25| Bool) (|.y.21| Int) (|.y.19| (Array Int Int)) (|.y.17| Int) (|.y.20| Int) (|.y.23| Int) (|.y.22| (Array Int Int)) (|.y.18| Int) (|.xtv.1| Int) (|.xtv.2| Int) (|.xtv.3| Int)) (=> (and (and (not .loc.14) (not .loc.15)) (not .loc.16)) (state |E_5| |.y.11| |F_5| |I_5| |A_6| |.y.12| |.y.13| |.loc.14| |.loc.15| |.loc.16| |I_2| |G_5| |L_4|))))
(assert (forall ((|E_5| Int) (|.y.11| Int) (|F_5| (Array Int Int)) (|I_5| Int) (|A_6| Int) (|.y.12| (Array Int Int)) (|.y.13| Int) (|.loc.14| Bool) (|.loc.15| Bool) (|.loc.16| Bool) (|I_2| Int) (|G_5| Int) (|L_4| Int) (|.loc.26| Bool) (|.loc.24| Bool) (|.loc.25| Bool) (|.y.21| Int) (|.y.19| (Array Int Int)) (|.y.17| Int) (|.y.20| Int) (|.y.23| Int) (|.y.22| (Array Int Int)) (|.y.18| Int) (|.xtv.1| Int) (|.xtv.2| Int) (|.xtv.3| Int)) (=> (and (state |E_5| |.y.11| |F_5| |I_5| |A_6| |.y.12| |.y.13| |.loc.14| |.loc.15| |.loc.16| |I_2| |G_5| |L_4|) (let ((.def_23 (not .loc.14))) (let ((.def_24 (not .loc.15))) (let ((.def_28 (select F_5 G_5))) (let ((.def_41 (<= E_5 0))) (let ((.def_42 (not .def_41))) (let ((.def_46 (or .def_41 (not (<= G_5 0))))) (let ((.def_47 (and (and (not (<= A_6 I_5)) .def_42) .def_46))) (let ((.def_52 (= (+ E_5 (+ I_5 (* (- 1) G_5))) 0))) (let ((.def_59 (not .loc.24))) (let ((.def_62 (not .loc.25))) (let ((.def_71 (not .loc.26))) (let ((.def_75 (= .y.20 0))) (let ((.def_77 (<= .y.13 I_5))) (let ((.def_94 (= (+ I_5 (* (- 1) .y.20)) (- 1)))) (let ((.def_96 (= E_5 .y.17))) (let ((.def_98 (= F_5 .y.19))) (let ((.def_100 (= A_6 .y.21))) (let ((.def_115 (= .y.12 .y.22))) (let ((.def_117 (<= A_6 E_5))) (let ((.def_126 (<= A_6 0))) (let ((.def_182 (<= .y.11 0))) (and (not .loc.16) (or (or (or (or (and .loc.15 (or (or (and (and (and (and .loc.14 (and (not (= L_4 .def_28)) (and (and (= (+ I_5 (* (- 1) L_4)) (- 42)) .def_47) .def_52))) .loc.26) .def_59) .def_62) (and (= .y.13 .y.21) (and (= .y.12 .y.19) (and (= A_6 .y.17) (and (and (and .def_23 (and (and .loc.24 .loc.25) .def_71)) .def_75) .def_77))))) (and (and (and (and (and (= (+ I_5 (* (- 1) .def_28)) (- 42)) (and .def_71 (and .loc.25 (and .loc.24 (and .loc.14 (and .def_47 .def_52)))))) .def_94) .def_96) .def_98) .def_100))) (and (= A_6 .y.23) (and (= I_5 .y.21) (and (= .y.11 .y.17) (and (and (and .def_24 (and .def_98 (and .def_75 (and .def_71 (and .def_59 (and .loc.14 .loc.25)))))) .def_115) .def_117))))) (and (= .y.13 .y.23) (and (or (not (<= L_4 0)) .def_126) (and (not .def_77) (and (not .def_126) (and (= (+ I_5 (+ A_6 (* (- 1) L_4))) 0) (and (= (+ I_5 (+ (* (- 1) I_2) .def_28)) 0) (and (= .y.22 (store .y.12 L_4 I_2)) (and .def_100 (and .def_98 (and .def_96 (and .def_94 (and .def_23 (and .def_71 (and .def_59 (and .loc.25 (and .loc.15 (and .def_52 (and .def_42 .def_46))))))))))))))))))) (and (not (<= .y.18 0)) (and (not (<= .y.20 0)) (and (not (<= .y.21 0)) (and (= .y.17 0) (and .def_24 (and .def_23 (and .def_71 (and .loc.24 .def_62))))))))) (and (= I_5 .y.20) (and (= .y.11 .y.18) (and (not .def_117) (and (or (not (<= I_2 0)) .def_182) (and (not .def_182) (and (= (+ E_5 (* (- 1) .y.17)) (- 1)) (and (= (+ E_5 (+ .y.11 (* (- 1) I_2))) 0) (and (= .y.19 (store F_5 I_2 42)) (and .def_115 (and .def_24 (and .def_100 (and .def_71 (and .def_62 (and .loc.14 .loc.24)))))))))))))))))))))))))))))))))))))) (state |.y.17| |.y.18| |.y.19| |.y.20| |.y.21| |.y.22| |.y.23| |.loc.24| |.loc.25| |.loc.26| |.xtv.1| |.xtv.2| |.xtv.3|))))
(assert (forall ((|E_5| Int) (|.y.11| Int) (|F_5| (Array Int Int)) (|I_5| Int) (|A_6| Int) (|.y.12| (Array Int Int)) (|.y.13| Int) (|.loc.14| Bool) (|.loc.15| Bool) (|.loc.16| Bool) (|I_2| Int) (|G_5| Int) (|L_4| Int) (|.loc.26| Bool) (|.loc.24| Bool) (|.loc.25| Bool) (|.y.21| Int) (|.y.19| (Array Int Int)) (|.y.17| Int) (|.y.20| Int) (|.y.23| Int) (|.y.22| (Array Int Int)) (|.y.18| Int) (|.xtv.1| Int) (|.xtv.2| Int) (|.xtv.3| Int)) (=> (state |E_5| |.y.11| |F_5| |I_5| |A_6| |.y.12| |.y.13| |.loc.14| |.loc.15| |.loc.16| |I_2| |G_5| |L_4|) (not (and .loc.16 (and (not .loc.14) (not .loc.15)))))))
(check-sat)
